114 104 173 2 43 17 53 123 
21 38 192 163 181 130 158 
57 118 180 184 199 9 92 63 
20 12 58 127 185 195 108 
85 73 147 141 6 139 
178 93 55 168 16 140 137 
101 88 3 150 81 172 189 
62 27 31 129 94 138 42 59 
159 156 152 36 106 67 
135 10 46 84 191 187 142 
133 50 124 86 14 1 95 
148 19 154 70 76 183 
23 177 8 194 64 
131 18 80 97 
193 47 128 149 
113 45 146 11 200 39 
5 162 
60 161 151 125 52 15 56 
83 144 196 25 4 165 49 
164 30 44 132 96 100 74 107 
170 182 134 145 77 157 99 198 
82 143 78 13 153 110 117 
116 26 35 22 71 167 188 
171 112 75 33 121 34 109 
155 119 166 54 186 37 90 
41 32 160 126 169 89 87 28 
120 66 176 98 7 72 111 
190 175 40 61 91 51 174 
48 102 68 122 69 105 179 
103 197 65 115 24 79 29 136 

